 vasp.6.5.0 16Dec24 (build Mar 12 2025 16:11:14) complex

 executed on             LinuxIFC date 2025.09.22  10:51:42

 INCAR:
   SYSTEM = Silicon Dioxide (Quartz) - scf
   ENCUT = 520
   PREC = Accurate
   ALGO = Fast
   GGA = PE
   EDIFFG = -0.01
   DESCRIPTION = Self-consistent field calculation
   IBRION = -1
   NSW = 0
   PREC = Accurate
   ALGO = Fast

 POTCAR:    PAW_PBE Si 05Jan2001
 POTCAR:    PAW_PBE O 08Apr2002
 POTCAR:    PAW_PBE Si 05Jan2001
   VRHFIN =Si: s2p2

   TITEL  = PAW_PBE Si 05Jan2001
   POMASS =   28.085; ZVAL   =    4.000    mass and valenz
   ENMAX  =  245.345; ENMIN  =  184.009 eV

   TITEL  = PAW_PBE O 08Apr2002
   POMASS =   16.000; ZVAL   =    6.000    mass and valenz
   ENMAX  =  400.000; ENMIN  =  300.000 eV

  PAW_PBE Si 05Jan2001                  :
  PAW_PBE O 08Apr2002                   :

 POSCAR: Si8 O16
  positions in direct lattice

 exchange-correlation table for PE
   RHO(1)=    0.500       N(1)  =     2000
   RHO(2)=  100.500       N(2)  =     4000

 ion  position               nearest neighbor table
   1  0.250  0.250  0.250-  10 1.60  21 1.60  24 1.60  11 1.60
   2  0.500  0.000  0.500-  10 1.60  12 1.60  17 1.60  19 1.60
   3  0.250  0.750  0.750-  14 1.60  17 1.60  20 1.60  15 1.60
   4  0.500  0.500  0.000-  14 1.60  16 1.60  21 1.60  23 1.60
   5  0.750  0.250  0.750-  13 1.60  16 1.60  18 1.60  19 1.60
   6  0.000  0.000  0.000-   9 1.60  18 1.60  20 1.60  11 1.60
   7  0.750  0.750  0.250-   9 1.60  12 1.60  22 1.60  23 1.60
   8  0.000  0.500  0.500-  13 1.60  22 1.60  24 1.60  15 1.60
   9  0.875  0.875  0.125-   6 1.60   7 1.60
  10  0.375  0.125  0.375-   1 1.60   2 1.60
  11  0.125  0.125  0.125-   1 1.60   6 1.60
  12  0.625  0.875  0.375-   2 1.60   7 1.60
  13  0.875  0.375  0.625-   5 1.60   8 1.60
  14  0.375  0.625  0.875-   3 1.60   4 1.60
  15  0.125  0.625  0.625-   3 1.60   8 1.60
  16  0.625  0.375  0.875-   4 1.60   5 1.60
  17  0.375  0.875  0.625-   2 1.60   3 1.60
  18  0.875  0.125  0.875-   5 1.60   6 1.60
  19  0.625  0.125  0.625-   2 1.60   5 1.60
  20  0.125  0.875  0.875-   3 1.60   6 1.60
  21  0.375  0.375  0.125-   1 1.60   4 1.60
  22  0.875  0.625  0.375-   7 1.60   8 1.60
  23  0.625  0.625  0.125-   4 1.60   7 1.60
  24  0.125  0.375  0.375-   1 1.60   8 1.60

  LATTYP: Found a simple cubic cell.
 ALAT       =     7.3987326800

  Lattice vectors:

 A1 = (   7.3987326800,   0.0000000000,   0.0000000000)
 A2 = (   0.0000000000,   7.3987326800,   0.0000000000)
 A3 = (   0.0000000000,   0.0000000000,   7.3987326800)

Analysis of symmetry for initial positions (statically):
 Subroutine PRICEL returns following result:

  LATTYP: Found a face centered cubic cell.
 ALAT       =     7.3987326800

[...]

   4 primitive cells build up your supercell.

 Routine SETGRP: Setting up the symmetry group for a
 simple cubic supercell.

 Subroutine GETGRP returns: Found 48 space group operations
 (whereof 24 operations were pure point group operations)
 out of a pool of 48 trial point group operations.

The static configuration has the point symmetry T_d .
 The point group associated with its full space group is O_h .

Analysis of symmetry for dynamics (positions and initial velocities):
 Subroutine PRICEL returns following result:

  LATTYP: Found a face centered cubic cell.
 ALAT       =     7.3987326800

  Lattice vectors:

 A1 = (   3.6993663400,  -3.6993663400,   0.0000000000)
 A2 = (   3.6993663400,   0.0000000000,   3.6993663400)
 A3 = (  -0.0000000000,  -3.6993663400,   3.6993663400)

   4 primitive cells build up your supercell.

 Routine SETGRP: Setting up the symmetry group for a
 simple cubic supercell.

 Subroutine GETGRP returns: Found 48 space group operations
 (whereof 24 operations were pure point group operations)
 out of a pool of 48 trial point group operations.

The dynamic configuration has the point symmetry T_d .
 The point group associated with its full space group is O_h .

 Subroutine INISYM returns: Found 48 space group operations
 (whereof 24 operations are pure point group operations),
 and found     4 'primitive' translations

                                     Primitive cell

  volume of cell :     101.2540

  direct lattice vectors                    reciprocal lattice vectors
     3.699366340 -3.699366340  0.000000000     0.135158282 -0.135158282 -0.135158282
     3.699366340  0.000000000  3.699366340     0.135158282  0.135158282  0.135158282
    -0.000000000 -3.699366340  3.699366340    -0.135158282 -0.135158282  0.135158282

  length of vectors
     5.231694050  5.231694050  5.231694050     0.234101012  0.234101012  0.234101012

  position of ions in fractional coordinates (direct lattice)
     0.750000000  0.750000000  0.750000000
     1.000000000  0.000000000  0.000000000
     0.875000000  0.875000000  0.375000000
     0.875000000  0.875000000  0.875000000
     0.875000000  0.375000000  0.875000000
     0.375000000  0.875000000  0.875000000

  ion indices of the primitive-cell ions
   primitive index   ion index
                 1           1
                 2           2
                 3          21
                 4          10
                 5          11
                 6          24

 KPOINTS: Automatic mesh

Automatic generation of k-mesh.
 Grid dimensions read from file:
 generate k-points for:    1    1    1

 Generating k-lattice:

  Cartesian coordinates                     Fractional coordinates (reciprocal lattice)
     0.135158282 -0.000000000  0.000000000     1.000000000  0.000000000  0.000000000
     0.000000000  0.135158282  0.000000000     0.000000000  1.000000000  0.000000000
    -0.000000000 -0.000000000  0.135158282     0.000000000  0.000000000  1.000000000

  Length of vectors
     0.135158282  0.135158282  0.135158282

  Shift w.r.t. Gamma in fractional coordinates (k-lattice)
     0.000000000  0.000000000  0.000000000

 Subroutine IBZKPT returns following result:

 Found      1 irreducible k-points:

 Following reciprocal coordinates:
            Coordinates               Weight
  0.000000  0.000000  0.000000      1.000000

 Following cartesian coordinates:
            Coordinates               Weight
  0.000000  0.000000  0.000000      1.000000

 SYSTEM =  Silicon Dioxide (Quartz) - scf
 POSCAR =  Si8 O16

 Startparameter for this run:
   NWRITE =      2    write-flag & timer
   PREC   = accura    normal or accurate (medium, high low for compatibility)
   ISTART =      0    job   : 0-new  1-cont  2-samecut
   ICHARG =      2    charge: 1-file 2-atom 10-const
   ISPIN  =      1    spin polarized calculation?
   LNONCOLLINEAR =      F non collinear calculations
   LSORBIT =      F    spin-orbit coupling
   INIWAV =      1    electr: 0-lowe 1-rand  2-diag
   LASPH  =      F    aspherical Exc in radial PAW
 Electronic Relaxation 1
   ENCUT  =  520.0 eV  38.22 Ry    6.18 a.u.  13.76 13.76 13.76*2*pi/ulx,y,z
   ENINI  =  520.0     initial cutoff
   ENAUG  =  605.4 eV  augmentation charge cutoff
   NELM   =     60;   NELMIN=  2; NELMDL= -5     # of ELM steps
   EDIFF  = 0.1E-03   stopping-criterion for ELM
   LREAL  =      F    real-space projection
   NLSPLINE    = F    spline interpolate recip. space projectors
   LCOMPAT=      F    compatible to vasp.4.4
   GGA_COMPAT  = T    GGA compatible to vasp.4.4-vasp.4.6
   LMAXPAW     = -100 max onsite density
   LMAXMIX     =    2 max onsite mixed and CHGCAR
   VOSKOWN=      0    Vosko Wilk Nusair interpolation
   ROPT   =    0.00000   0.00000
 Ionic relaxation
   EDIFFG = -.1E-01   stopping-criterion for IOM
   NSW    =      0    number of steps for IOM
   NBLOCK =      1;   KBLOCK =      1    inner block; outer block
   IBRION =     -1    ionic relax: 0-MD 1-quasi-New 2-CG
   NFREE  =      0    steps in history (QN), initial steepest desc. (CG)
   ISIF   =      2    stress and relaxation
   IWAVPR =     10    prediction:  0-non 1-charg 2-wave 3-comb
   ISYM   =      2    0-nonsym 1-usesym 2-fastsym
   LCORR  =      T    Harris-Foulkes like correction to forces

   POTIM  = 0.5000    time-step for ionic-motion
   TEIN   =    0.0    initial temperature
   TEBEG  =    0.0;   TEEND  =   0.0 temperature during run
   SMASS  =  -3.00    Nose mass-parameter (am)
   estimated Nose-frequenzy (Omega)   =  0.10E-29 period in steps = 0.13E+47 mass=  -0.125E-26a.u.
   SCALEE = 1.0000    scale energy and forces
   NPACO  =    256;   APACO  = 10.0  distance and # of slots for P.C.
   PSTRESS=    0.0 pullay stress

  Mass of Ions in am
   POMASS =  28.09 16.00
  Ionic Valenz
   ZVAL   =   4.00  6.00
  Atomic Wigner-Seitz radii
  virtual crystal weights
   VCA    =   1.00  1.00
   NELECT =     128.0000    total number of electrons
   NUPDOWN=      -1.0000    fix difference up-down

 DOS related values:
   EMIN   =  10.00;   EMAX   =-10.00  energy-range for DOS
   EFERMI =   0.00;   METHOD = LEGACY
   ISMEAR =     1;   SIGMA  =   0.20  broadening in eV -4-tet -1-fermi 0-gaus
   EFERMI_NEDOS =   21; number of points for ismear=-14 and -15

 Electronic relaxation 2 (details)
   IALGO  =     68    algorithm
   LDIAG  =      T    sub-space diagonalisation (order eigenvalues)
   LSUBROT=      F    optimize rotation matrix (better conditioning)
   TURBO    =      0    0=normal 1=particle mesh
   IRESTART =      0    0=no restart 2=restart with 2 vectors
   NREBOOT  =      0    no. of reboots
   NMIN     =      0    reboot dimension
   EREF     =   0.00    reference energy to select bands
   IMIX   =      4    mixing-type and parameters
     AMIX     =   0.40;   BMIX     =  1.00
     AMIX_MAG =   1.60;   BMIX_MAG =  1.00
     AMIN     =   0.10
     WC   =   100.;   INIMIX=   1;  MIXPRE=   1;  MAXMIX= -45

 Intra band minimization:
   WEIMIN = 0.0000     energy-eigenvalue tresh-hold
   EBREAK =  0.32E-06  absolut break condition
   DEPER  =   0.30     relativ break condition

   TIME   =   0.40     timestep for ELM

  volume/ion in A,a.u.               =      16.88       113.88
  Fermi-wavevector in a.u.,A,eV,Ry     =   1.115118  2.107267 16.918683  1.243488
  Thomas-Fermi vector in A             =   2.251720

 Write flags
   LWAVE        =      T    write WAVECAR
   LDOWNSAMPLE  =      F    k-point downsampling of WAVECAR
   LCHARG       =      T    write CHGCAR
   LVTOT        =      F    write LOCPOT, total local potential
   LVHAR        =      F    write LOCPOT, Hartree potential only
   WRT_POTENTIAL= false  ! write potential to hdf5 file
   LELF         =      F    write electronic localiz. function (ELF)
   LORBIT       =      0    0 simple, 1 ext, 2 COOP (PROOUT), +10 PAW based schemes

 Python interface
   PLUGINS active      =      F    recompile with -DPLUGINS to activate

 Dipole corrections
   LMONO      =      F    monopole corrections only (constant potential shift)
   LDIPOL     =      F    correct potential (dipole corrections)
   IDIPOL     =      0    1-x, 2-y, 3-z, 4-all directions
   EPSILON    =  1.0000000 bulk dielectric constant
   LVACPOTAV  =      F  vacuum potentials using an averaging scheme for the charge density
   VACPOTFLAT =  0.1000000 required flatness to determine vacuum potential

Coulomb truncation method
  LTRUNCATE          =      F  Coulomb kernel truncation to be used
[...]
   0.25000000  0.75000000  0.75000000
   0.50000000  0.50000000  0.00000000
   0.75000000  0.25000000  0.75000000
   0.00000000  0.00000000  0.00000000
   0.75000000  0.75000000  0.25000000
   0.00000000  0.50000000  0.50000000
   0.87500000  0.87500000  0.12500000
   0.37500000  0.12500000  0.37500000
   0.12500000  0.12500000  0.12500000
   0.62500000  0.87500000  0.37500000
   0.87500000  0.37500000  0.62500000
   0.37500000  0.62500000  0.87500000
   0.12500000  0.62500000  0.62500000
   0.62500000  0.37500000  0.87500000
   0.37500000  0.87500000  0.62500000
   0.87500000  0.12500000  0.87500000
   0.62500000  0.12500000  0.62500000
   0.12500000  0.87500000  0.87500000
   0.37500000  0.37500000  0.12500000
   0.87500000  0.62500000  0.37500000
   0.62500000  0.62500000  0.12500000
   0.12500000  0.37500000  0.37500000

 position of ions in cartesian coordinates  (Angst):
   1.84968317  1.84968317  1.84968317
   3.69936634  0.00000000  3.69936634
   1.84968317  5.54904951  5.54904951
   3.69936634  3.69936634  0.00000000
   5.54904951  1.84968317  5.54904951
   0.00000000  0.00000000  0.00000000
   5.54904951  5.54904951  1.84968317
   0.00000000  3.69936634  3.69936634
   6.47389109  6.47389109  0.92484159
   2.77452475  0.92484158  2.77452476
   0.92484159  0.92484158  0.92484159
   4.62420793  6.47389109  2.77452476
   6.47389109  2.77452475  4.62420793
   2.77452476  4.62420792  6.47389109
   0.92484159  4.62420792  4.62420792
   4.62420793  2.77452475  6.47389109
   2.77452476  6.47389109  4.62420793
   6.47389109  0.92484158  6.47389109
   4.62420792  0.92484158  4.62420792
   0.92484159  6.47389109  6.47389109
   2.77452476  2.77452475  0.92484159
   6.47389109  4.62420792  2.77452476
   4.62420793  4.62420792  0.92484159
   0.92484159  2.77452475  2.77452476

 k-point     1 :   0.0000 0.0000 0.0000  plane waves:   11019

 maximum and minimum number of plane-waves per node :     11019    11019

 maximum number of plane-waves:     11019
 maximum index in each direction:
   IXMAX=   13   IYMAX=   13   IZMAX=   13
   IXMIN=  -13   IYMIN=  -13   IZMIN=  -13

 serial   3D FFT for wavefunctions
 parallel 3D FFT for charge:
    minimum data exchange during FFTs selected (reduces bandwidth)

 Broyden mixing: mesh for mixing (old mesh)
   NGX = 27   NGY = 27   NGZ = 27
  (NGX  =112   NGY  =112   NGZ  =112)
  gives a total of  19683 points

 initial charge density was supplied:
 charge density of overlapping atoms calculated
 number of electron     128.0000000 magnetization
 keeping initial charge density in first step

 Maximum index for augmentation-charges        13997 (set IRDMAX)

 First call to EWALD:  gamma=   0.240
 Maximum number of real-space cells   3x   3x   3
 Maximum number of reciprocal cells   3x   3x   3

--------------------------------------- Ionic step        1  -------------------------------------------

--------------------------------------- Iteration      1(   1)  ---------------------------------------

 eigenvalue-minimisations  :   154
 total energy-change (2. order) : 0.9990467E+03  (-0.6526936E+04)
 number of electron     128.0000000 magnetization
 augmentation part      128.0000000 magnetization

 Free energy of the ion-electron system (eV)
  alpha Z        PSCENC =       138.38359776
  Ewald energy   TEWEN  =     -3573.36042757
  -Hartree energ DENC   =     -3570.05719320
  -exchange      EXHF   =         0.00000000
  -V(xc)+E(xc)   XCENC  =       375.99127676
  PAW double counting   =      6249.78202716    -6137.81450322
  entropy T*S    EENTRO =        -0.05564570
  eigenvalues    EBANDS =      -226.08104026
  atomic energy  EATOM  =      7742.25859530
  Solvation  Ediel_sol  =         0.00000000
  free energy    TOTEN  =       999.04668704 eV

  energy without entropy =      999.10233274  energy(sigma->0) =      999.06523561

[...]

 eigenvalue-minimisations  :   199
 total energy-change (2. order) :-0.1119460E+04  (-0.1095826E+04)
 number of electron     128.0000000 magnetization
 augmentation part      128.0000000 magnetization

[...]

 Broyden mixing:
  rms(total) = 0.43075E+01    rms(broyden)= 0.43066E+01
  rms(prec ) = 0.56339E+01
  weight for this iteration     100.00

[...]

 eigenvalues of (default mixing * dielectric matrix)
  average eigenvalue GAMMA=   1.2667
  1.2667

[...]

 eigenvalue-minimisations  :   180
 total energy-change (2. order) : 0.2427572E-02  (-0.5312208E-03)
 number of electron     127.9999920 magnetization
 augmentation part        9.7087185 magnetization

[...]

 Broyden mixing:
  rms(total) = 0.15895E-02    rms(broyden)= 0.15747E-02
  rms(prec ) = 0.16638E-02
  weight for this iteration     100.00

 eigenvalues of (default mixing * dielectric matrix)
  average eigenvalue GAMMA=   1.6460
  3.2907  2.6397  2.6397  1.5362  1.1877  1.1877  0.8883  0.7973  0.6468

[...]

--------------------------------------- Iteration      1(  15)  ---------------------------------------

 eigenvalue-minimisations  :   119
 total energy-change (2. order) :-0.2898034E-04  (-0.2464198E-04)
 number of electron     127.9999920 magnetization
 augmentation part        9.7014622 magnetization

 Free energy of the ion-electron system (eV)
  alpha Z        PSCENC =       138.38359776
  Ewald energy   TEWEN  =     -3573.36042757
  -Hartree energ DENC   =     -3994.26974499
  -exchange      EXHF   =         0.00000000
  -V(xc)+E(xc)   XCENC  =       401.97803970
  PAW double counting   =     21994.23001472   -21889.35088899
  entropy T*S    EENTRO =         0.03478770
  eigenvalues    EBANDS =     -1009.13204451
  atomic energy  EATOM  =      7742.25859530
  Solvation  Ediel_sol  =         0.00000000
  free energy    TOTEN  =      -189.22807088 eV

  energy without entropy =     -189.26285858  energy(sigma->0) =     -189.23966678

 average (electrostatic) potential at core
  the test charge radii are     0.9892  0.7215
  (the norm of the test charge is              1.0000)
       1 -88.6479       2 -88.6479       3 -88.6479       4 -88.6479       5 -88.6479
       6 -88.6479       7 -88.6479       8 -88.6479       9 -74.5077      10 -74.5077
      11 -74.5077      12 -74.5077      13 -74.5077      14 -74.5077      15 -74.5077
      16 -74.5077      17 -74.5077      18 -74.5077      19 -74.5077      20 -74.5077
      21 -74.5077      22 -74.5077      23 -74.5077      24 -74.5077

 E-fermi :  -0.6502     XC(G=0):  -7.4970     alpha+bet : -7.6958

 WARNING: Could not determine fundamental gap because eigenvalues are not
     sorted.

 Fermi energy:        -0.6501703117

 k-point     1 :       0.0000    0.0000    0.0000
  band No.  band energies     occupation
      1     -20.2883      2.00000
      2     -19.4271      2.00000
      3     -19.4271      2.00000
      4     -19.4271      2.00000
      5     -19.4271      2.00000
      6     -19.4271      2.00000
      7     -19.4271      2.00000
      8     -18.2686      2.00000
      9     -18.2686      2.00000
     10     -18.2686      2.00000
     11     -18.2686      2.00000
     12     -18.2686      2.00000
     13     -18.2686      2.00000
     14     -18.2465      2.00000
     15     -18.2465      2.00000
     16     -18.2465      2.00000
     17     -10.9500      2.00000
     18      -8.6827      2.00000
     19      -8.6827      2.00000
     20      -8.6827      2.00000
     21      -8.6827      2.00000
     22      -8.6827      2.00000
     23      -8.6827      2.00000
     24      -6.8148      2.00000
     25      -6.8148      2.00000
     26      -6.8148      2.00000
     27      -6.2994      2.00000
     28      -6.2994      2.00000
     29      -6.2994      2.00000
     30      -6.2994      2.00000
     31      -6.2994      2.00000
     32      -6.2994      2.00000
     33      -3.6522      2.00000
     34      -3.6522      2.00000
     35      -3.6522      2.00000
     36      -3.6522      2.00000
     37      -3.6522      2.00000
     38      -3.6522      2.00000
     39      -3.3975      2.00000
     40      -3.3975      2.00000
     41      -3.3057      2.00000
     42      -3.3057      2.00000
     43      -3.3057      2.00000
     44      -3.3057      2.00000
     45      -3.3057      2.00000
     46      -3.3057      2.00000
     47      -2.8895      2.00000
     48      -2.8895      2.00000
     49      -2.8895      2.00000
     50      -2.2520      2.00000
     51      -2.2520      2.00000
     52      -2.2520      2.00000
     53      -2.2520      2.00000
     54      -2.2520      2.00000
     55      -2.2520      2.00000
     56      -1.4831      2.00000
     57      -1.4831      2.00000
     58      -1.4831      2.00000
     59      -1.4831      2.00000
     60      -1.4831      2.00000
[...]
     63      -0.8185      2.00000
     64      -0.8185      2.00000
     65       4.6362      0.00000
     66       7.5056      0.00000
     67       7.5056      0.00000
     68       7.5061      0.00000
     69       7.5062      0.00000
     70       7.5062      0.00000
     71       7.5062      0.00000
     72       7.9264      0.00000
     73       7.9265      0.00000
     74       7.9266      0.00000
     75       8.0775      0.00000
     76       9.7603      0.00000
     77       9.7753      0.00000

 soft charge-density along one line, spin component           1
         0         1         2         3         4         5         6         7         8         9
 total charge-density along one line

------------------------ aborting loop because EDIFF is reached ----------------------------------------

  FORCE on cell =-STRESS in cart. coord.  units (eV):
  Direction    XX          YY          ZZ          XY          YZ          ZX
  Alpha Z   138.38360   138.38360   138.38360
  Ewald   -1191.12547 -1191.12547 -1191.12547     0.00000     0.00000     0.00000
  Hartree  1331.41809  1331.41809  1331.41809    -0.00000    -0.00000    -0.00000
  E(xc)    -601.81095  -601.81095  -601.81095     0.00000     0.00000     0.00000
  Local   -2000.10647 -2000.10647 -2000.10647     0.00000    -0.00000     0.00000
  n-local  -146.34222  -146.34285  -146.34294     0.00004    -0.00014     0.00008
  augment    74.90172    74.90172    74.90172    -0.00000     0.00000     0.00000
  Kinetic  2404.29964  2404.29880  2404.29855     0.00005     0.00001    -0.00012
  Fock        0.00000     0.00000     0.00000     0.00000     0.00000     0.00000
  Total       9.61686     9.61686     9.61686     0.00000     0.00000     0.00000
  in kB      38.04274    38.04274    38.04274     0.00000     0.00000     0.00000

 VOLUME and BASIS-vectors are now :
  energy-cutoff  :      520.00
  volume of cell :      405.02
      direct lattice vectors                 reciprocal lattice vectors
     7.398732680  0.000000000  0.000000000     0.135158282 -0.000000000  0.000000000
     0.000000000  7.398732680  0.000000000     0.000000000  0.135158282  0.000000000
     0.000000000  0.000000000  7.398732680    -0.000000000 -0.000000000  0.135158282

  length of vectors
     7.398732680  7.398732680  7.398732680     0.135158282  0.135158282  0.135158282

 FORCES acting on ions
    electron-ion (+dipol)            ewald-force                    non-local-force                 convergence-correction
   -.238E-13 -.415E-12 0.841E-12   -.715E-13 -.719E-13 -.246E-13   -.339E-20 0.296E-20 -.299E-20   -.539E-14 0.695E-13 0.460E-13
   -.828E-13 -.138E-13 -.165E-11   0.438E-13 0.688E-13 0.175E-13   0.370E-20 -.256E-20 0.254E-20   0.343E-13 0.325E-14 0.491E-13
   0.171E-13 -.108E-11 0.150E-12   -.568E-13 -.698E-13 -.312E-13   -.280E-20 -.132E-20 -.498E-20   -.300E-14 0.423E-14 0.372E-13
   0.121E-14 -.703E-12 -.769E-12   0.453E-13 0.702E-13 -.353E-13   0.242E-20 0.191E-20 0.429E-20   0.385E-13 -.103E-14 0.161E-13
   -.652E-13 0.335E-12 -.162E-11   -.547E-13 -.370E-13 -.268E-13   0.122E-20 0.127E-20 -.154E-20   -.103E-13 0.654E-13 0.474E-13
   -.286E-13 -.815E-14 -.865E-13   0.468E-13 0.688E-13 -.588E-13   -.668E-21 -.127E-20 0.173E-20   -.225E-13 0.122E-13 0.120E-13
   0.839E-13 -.254E-11 0.202E-11   -.473E-13 -.473E-13 -.239E-13   -.241E-20 0.424E-21 -.540E-20   -.128E-13 -.385E-15 0.490E-13
   -.170E-13 -.257E-13 -.120E-12   0.468E-13 0.820E-13 -.111E-15   0.257E-20 -.318E-21 0.558E-20   -.201E-13 0.338E-14 0.449E-13
   0.183E-11 0.793E-12 -.220E-11   0.242E-13 0.236E-13 0.197E-13   0.622E-20 -.784E-20 -.582E-21   0.138E-12 0.270E-12 -.583E-13
   0.141E-11 0.547E-12 -.283E-11   0.335E-13 0.222E-13 0.320E-13   -.571E-20 -.127E-20 -.296E-20   0.107E-12 0.196E-12 0.254E-12
   -.302E-12 -.142E-11 0.307E-11   -.206E-13 0.104E-13 0.167E-13   -.161E-20 0.360E-20 -.413E-20   -.306E-12 -.766E-13 -.864E-13
   0.878E-12 0.170E-11 0.975E-12   0.139E-13 -.271E-13 -.194E-13   -.362E-20 0.210E-20 -.164E-20   0.109E-12 -.493E-13 0.229E-12
   -.313E-11 -.125E-11 -.707E-12   0.433E-13 0.107E-13 0.187E-13   0.815E-20 -.402E-20 -.847E-21   0.136E-12 0.348E-12 -.222E-13
   0.168E-11 0.181E-11 -.173E-12   0.246E-13 0.867E-14 0.184E-13   -.494E-20 -.357E-20 0.138E-20   0.251E-12 -.173E-13 0.189E-12
   -.341E-12 -.129E-11 0.319E-11   -.554E-14 0.720E-14 0.129E-13   -.736E-20 0.826E-20 -.143E-20   -.307E-12 -.172E-12 -.680E-13
   0.102E-11 0.244E-11 -.790E-12   0.165E-13 -.368E-13 -.273E-13   -.322E-20 0.196E-20 -.739E-20   -.844E-14 0.156E-12 0.163E-12
   0.147E-11 0.669E-12 -.497E-12   0.202E-13 0.100E-13 0.992E-14   0.793E-20 -.699E-20 0.429E-20   0.252E-12 0.151E-12 0.819E-13
   0.251E-11 -.146E-11 -.160E-12   -.218E-14 -.263E-13 0.348E-13   -.698E-20 0.424E-21 0.275E-20   0.988E-13 -.170E-13 0.293E-12
   0.117E-11 0.293E-11 -.147E-11   -.187E-13 -.133E-14 0.496E-13   -.318E-20 0.254E-20 0.360E-20   -.230E-12 -.616E-13 -.173E-13
   0.227E-12 -.170E-11 0.341E-11   -.294E-13 -.496E-13 -.154E-13   0.131E-20 0.296E-20 0.244E-20   -.734E-13 0.994E-13 0.163E-12
   0.128E-11 -.672E-12 -.335E-11   0.276E-13 -.796E-14 0.167E-13   0.136E-19 -.572E-20 -.233E-20   0.262E-12 0.249E-12 0.417E-13
   -.256E-11 -.160E-12 -.152E-11   -.952E-14 -.222E-13 0.276E-13   -.727E-20 -.148E-20 0.551E-20   0.248E-14 -.206E-14 0.378E-12
   0.131E-11 0.321E-13 0.452E-12   -.181E-13 -.307E-14 0.329E-13   -.195E-20 0.339E-20 -.191E-20   -.251E-12 -.168E-12 -.809E-13
   0.184E-12 -.152E-11 0.297E-11   -.290E-13 -.618E-13 -.179E-13   -.241E-20 0.889E-20 -.106E-21   0.403E-13 0.640E-13 0.237E-12
   0.852E-11 -.299E-11 -.872E-12   0.233E-13 -.796E-13 0.266E-13   -.104E-19 0.433E-20 -.412E-20   0.219E-12 0.112E-11 0.200E-11

 POSITION                                       TOTAL-FORCE (eV/Angst)
      1.84968      1.84968      1.84968         0.000000      0.000000      0.000000
      3.69937      0.00000      3.69937         0.000000      0.000000     -0.000000
      1.84968      5.54905      5.54905         0.000000      0.000000      0.000000
      3.69937      3.69937      0.00000         0.000000     -0.000000      0.000000
      5.54905      1.84968      5.54905        -0.000000     -0.000000      0.000000
      0.00000      0.00000      0.00000         0.000000      0.000000     -0.000000
      5.54905      5.54905      1.84968         0.000000      0.000000      0.000000
      0.00000      3.69937      3.69937        -0.000000      0.000000      0.000000
      6.47389      6.47389      0.92484         0.000000      0.000000      0.000000
      2.77452      0.92484      2.77452         0.000000     -0.000000      0.000000
      0.92484      0.92484      0.92484        -0.000000      0.000000     -0.000000
      4.62421      6.47389      2.77452        -0.000000      0.000000     -0.000000
      6.47389      2.77452      4.62421        -0.000000     -0.000000     -0.000000
      2.77452      4.62421      6.47389        -0.000000      0.000000      0.000000
      0.92484      4.62421      4.62421         0.000000      0.000000     -0.000000
      4.62421      2.77452      6.47389        -0.000000     -0.000000      0.000000
      2.77452      6.47389      4.62421        -0.000000     -0.000000     -0.000000
      6.47389      0.92484      6.47389         0.000000      0.000000     -0.000000
      4.62421      0.92484      4.62421         0.000000      0.000000     -0.000000
      0.92484      6.47389      6.47389        -0.000000     -0.000000     -0.000000
      2.77452      2.77452      0.92484         0.000000      0.000000     -0.000000
      6.47389      4.62421      2.77452        -0.000000     -0.000000      0.000000
      4.62421      4.62421      0.92484        -0.000000     -0.000000     -0.000000
      0.92484      2.77452      2.77452         0.000000     -0.000000     -0.000000
    total drift:                                0.000000     -0.000000      0.000000

  FREE ENERGIE OF THE ION-ELECTRON SYSTEM (eV)
  free  energy   TOTEN  =      -189.22807088 eV

  energy  without entropy=     -189.26285858  energy(sigma->0) =     -189.23966678

 writing wavefunctions